NAME : B-n56-k7
COMMENT : (Augerat et al, No of trucks: 7, Optimal value: 707)
TYPE : CVRP
DIMENSION : 56
EDGE_WEIGHT_TYPE : EUC_2D 
CAPACITY : 100
NODE_COORD_SECTION 
 1 87 45
 2 93 41
 3 75 95
 4 89 55
 5 89 19
 6 21 9
 7 81 31
 8 79 25
 9 30 18
 10 5 5
 11 31 21
 12 84 98
 13 10 8
 14 90 58
 15 24 16
 16 80 26
 17 96 42
 18 28 18
 19 37 23
 20 39 27
 21 78 104
 22 98 26
 23 8 12
 24 10 12
 25 82 30
 26 82 38
 27 94 24
 28 94 44
 29 30 16
 30 84 28
 31 76 96
 32 76 102
 33 98 58
 34 90 64
 35 76 96
 36 100 44
 37 94 56
 38 84 26
 39 6 12
 40 90 24
 41 26 12
 42 84 30
 43 86 28
 44 31 27
 45 24 16
 46 84 30
 47 33 19
 48 90 28
 49 94 50
 50 92 60
 51 8 12
 52 24 16
 53 94 42
 54 82 32
 55 76 96
 56 80 100
DEMAND_SECTION 
1 0 
2 10 
3 15 
4 7 
5 25 
6 16 
7 8 
8 15 
9 23 
10 8 
11 2 
12 14 
13 7 
14 15 
15 14 
16 7 
17 14 
18 11 
19 7 
20 6 
21 1 
22 22 
23 26 
24 5 
25 18 
26 18 
27 4 
28 10 
29 3 
30 2 
31 12 
32 6 
33 15 
34 12 
35 5 
36 7 
37 12 
38 24 
39 6 
40 12 
41 5 
42 18 
43 3 
44 7 
45 15 
46 23 
47 20 
48 5 
49 24 
50 6 
51 19 
52 5 
53 10 
54 3 
55 4 
56 5 
DEPOT_SECTION 
 1  
 -1  
EOF 
